13440 14138 12120
12598 14987 12096
13031 15028 11750
11913 14634 12605
10365 15880 10101
10917 12379 13377
12248 13904 12846
10744 13494 13153
14118 13265 11134
13914 13328 11589
13925 14306 11095
9385 11192 13557
13599 14636 11537
12044 15577 10227
11656 12310 13241
12819 14203 12490
13154 15054 10947
13079 14496 12141
12586 12869 12911
13470 13396 12369
10818 15923 9701
11088 12553 13349
12941 13813 12595
13700 13467 11953
10605 15079 12129
12604 15304 11089
10499 13509 13167
11208 15838 10385
13622 14741 11313
10541 14076 12932
10727 12911 13370
13670 14209 11704
11921 15551 11030
9844 11364 13527
9968 12491 13436
10760 14792 12569
9652 15776 10608
11468 15508 11430
13838 14173 11416
14174 13261 10933
12591 15290 11207
10958 12523 13369
